22      4       
15      15      13      19      
0       0       0       0       0       3       2       3       4       
3       10      10      0       0       2       6       11      
8       3       0       0       0       2       7       12      
5       0       9       0       7       2       5       8       
4       0       8       0       6       2       9       10      
7       5       10      5       0       1       15      
5       0       0       6       6       2       17      18      
4       3       0       0       6       2       9       12      
8       8       0       0       0       3       17      19      20      
10      0       0       0       4       2       19      21      
4       8       1       0       7       1       18      
6       0       8       3       0       1       13      
2       0       0       9       9       1       14      
4       0       7       0       0       1       16      
8       1       4       0       10      1       17      
7       0       0       7       0       2       20      21      
3       10      7       0       9       1       21      
3       8       0       3       5       1       20      
9       0       6       0       9       1       22      
3       0       0       10      2       1       22      
8       0       5       5       2       1       22      
0       0       0       0       0       0       